8 = ndim
4 = nblocks
6 1 1 1 = blockstruct
0.0, 0.0, 0.0, 0.0, 0.0, 0.0, 0.0, 0.0 = objcoeffs
0 1 1 6 -0.009090431710499954
0 1 2 6 -0.0009706624177312367
0 1 3 3 0.0005616712565335129
0 1 3 4 0.009090431710499954
0 1 3 5 0.0009706624177312367
0 3 1 1 -0.01498920934705223
0 4 1 1 -0.07807106872827833
1 1 1 1 1.0
2 1 1 2 1.0
3 1 1 3 1.0
4 1 2 2 1.0
5 1 2 3 1.0
6 1 1 5 1.0
6 1 2 4 -1.0
7 1 4 4 1.0
7 1 5 5 1.0
7 1 6 6 1.0
8 1 3 3 -1.0
8 2 1 1 1.0
